instances/ampl_instances/ss_inst_15b_28n.dat
param set_len = 28;
param target := 192223;
param values := [1] 17640 [2] 17228 [3] 1620 [4] 19613 [5] 9130 [6] 11662 [7] 13957 [8] 13364 [9] 8467 [10] 7881 [11] 22711 [12] 25841 [13] 816 [14] 13538 [15] 28219 [16] 13819 [17] 15201 [18] 15151 [19] 6153 [20] 5592 [21] 26562 [22] 26578 [23] 21966 [24] 30882 [25] 26058 [26] 20517 [27] 9894 [28] 4363 ;
