Project4/outputs/ilp/ss_inst_15b_28n.out
_solve_elapsed_time = 1.01063

calculated_sum = 192223

target_sum = 192223

set_len = 28

x [*] :=
 1 0    4 0    7 0   10 1   13 0   16 1   19 1   22 1   25 1   28 1
 2 0    5 1    8 0   11 0   14 0   17 1   20 1   23 0   26 0
 3 0    6 0    9 0   12 1   15 0   18 1   21 1   24 0   27 1
;

